Test: chnl10_11.cnf
Options: -no-inverting-opt -activity-look-freq=1
WARNING: for repeatability, setting FPU to use double precision
============================[ Problem Statistics ]=============================
|                                                                             |
|  Number of symmetries:           39                                         |
|  Number of invertingSyms:         0                                         |
|  Number of variables:           220                                         |
|  Number of clauses:            1122                                         |
|  Parse time:                   0.00 s                                       |
|                                                                             |
============================[ Search Statistics ]==============================
| Conflicts |          ORIGINAL         |          LEARNT          | Progress |
|           |    Vars  Clauses Literals |    Limit  Clauses Lit/Cl |          |
===============================================================================
===============================================================================
restarts              : 1
conflicts             : 19             (inf /sec)
symconflicts          : 8              (inf /sec)
decisions             : 62             (0.00 % random) (inf /sec)
propagations          : 894            (inf /sec)
sympropagations       : 72             (inf /sec)
conflict literals     : 476            (0.83 % deleted)
literals     : 476            (0.83 % deleted)

HEURISTIC USAGES
random                : 0           
activity w/ lookahead : 62          
activity no lookahead : 0           
original sp           : 0           
sym count             : 0           

Memory used           : 6.00 MB
CPU time              : 0 s

UNSATISFIABLE
